certificates/rado_a9_c69_N19.cnf
c Rad2 upper bound instance: x1 + 9*x2 - x3 = 69, interval [1,19]
p cnf 19 80
1 4 8 0
-1 -4 -8 0
1 9 13 0
-1 -9 -13 0
2 5 8 0
-2 -5 -8 0
2 9 14 0
-2 -9 -14 0
3 6 8 0
-3 -6 -8 0
3 9 15 0
-3 -9 -15 0
4 7 8 0
-4 -7 -8 0
4 9 16 0
-4 -9 -16 0
5 8 0
-5 -8 0
5 9 17 0
-5 -9 -17 0
6 8 9 0
-6 -8 -9 0
6 9 18 0
-6 -9 -18 0
1 7 0
-1 -7 0
7 8 10 0
-7 -8 -10 0
7 9 19 0
-7 -9 -19 0
2 7 8 0
-2 -7 -8 0
8 11 0
-8 -11 0
3 7 9 0
-3 -7 -9 0
8 9 12 0
-8 -9 -12 0
4 7 10 0
-4 -7 -10 0
8 10 13 0
-8 -10 -13 0
5 7 11 0
-5 -7 -11 0
8 11 14 0
-8 -11 -14 0
6 7 12 0
-6 -7 -12 0
8 12 15 0
-8 -12 -15 0
7 13 0
-7 -13 0
8 13 16 0
-8 -13 -16 0
7 8 14 0
-7 -8 -14 0
8 14 17 0
-8 -14 -17 0
7 9 15 0
-7 -9 -15 0
8 15 18 0
-8 -15 -18 0
1 6 16 0
-1 -6 -16 0
7 10 16 0
-7 -10 -16 0
8 16 19 0
-8 -16 -19 0
2 6 17 0
-2 -6 -17 0
7 11 17 0
-7 -11 -17 0
3 6 18 0
-3 -6 -18 0
7 12 18 0
-7 -12 -18 0
4 6 19 0
-4 -6 -19 0
7 13 19 0
-7 -13 -19 0
