certificates/rado_a9_c69_N19.drat
8 -17 -18 0
-7 -19 0
-18 7 0
-19 0
9 0
18 -7 0
-7 0
1 0
13 0
-18 0
0
